;; Mutation-Based Equivalence Benchmark
;; Source:     AutomatArk / instance14901.smt2
;; Mutations:  literal_char_dec, literal_char_dec
;; Status:     sat
;;
;; Original regex vs mutated regex
;; Equivalence check: unsat ⟺ L(R1) = L(R2)

(set-info :smt-lib-version 2.6)
(set-info :category "mutation")
(set-info :status sat)
(set-logic QF_S)

(declare-const x String)

;; R1: original
;; R2: mutated (literal_char_dec, literal_char_dec)
(assert
  (str.in_re x
    (re.union (re.inter (re.++ (re.union (re.++ (re.union (re.++ (re.union (re.++ (re.opt (str.to_re "0")) (re.range "1" "9")) (re.++ (str.to_re "1") (re.union (str.to_re "0") (str.to_re "1") (str.to_re "2")))) (str.to_re "/") (re.union (re.++ (re.opt (str.to_re "0")) (re.range "1" "9")) (re.++ (str.to_re "1") (re.range "0" "9")) (re.++ (str.to_re "2") (re.range "0" "8")))) (re.++ (re.union (re.++ (re.opt (str.to_re "0")) (re.union (str.to_re "1") (str.to_re "3") (str.to_re "4") (str.to_re "5") (str.to_re "6") (str.to_re "7") (str.to_re "8") (str.to_re "9"))) (re.++ (str.to_re "1") (re.union (str.to_re "0") (str.to_re "1") (str.to_re "2")))) (str.to_re "/") (re.union (str.to_re "29") (str.to_re "30"))) (re.++ (re.union (re.++ (re.opt (str.to_re "0")) (re.union (str.to_re "1") (str.to_re "3") (str.to_re "5") (str.to_re "7") (str.to_re "8"))) (re.++ (str.to_re "1") (re.union (str.to_re "0") (str.to_re "2")))) (str.to_re "/31"))) (str.to_re "/") (re.union (str.to_re "19") (re.++ (re.range "2" "9") (re.range "0" "9"))) ((_ re.loop 2 2) (re.range "0" "9"))) (re.++ (re.opt (str.to_re "0")) (str.to_re "2/29/") (re.union (re.++ (re.union (str.to_re "19") (re.++ (re.range "2" "9") (re.range "0" "9"))) (re.union (re.++ (str.to_re "0") (re.union (str.to_re "4") (str.to_re "8"))) (re.++ (re.union (str.to_re "2") (str.to_re "4") (str.to_re "6") (str.to_re "8")) (re.union (str.to_re "0") (str.to_re "4") (str.to_re "8"))) (re.++ (re.union (str.to_re "1") (str.to_re "3") (str.to_re "5") (str.to_re "7") (str.to_re "9")) (re.union (str.to_re "2") (str.to_re "6"))))) (re.++ (re.union (re.++ (re.union (str.to_re "2") (str.to_re "4") (str.to_re "6") (str.to_re "8")) (re.union (str.to_re "0") (str.to_re "4") (str.to_re "8"))) (re.++ (re.union (str.to_re "3") (str.to_re "5") (str.to_re "7") (str.to_re "9")) (re.union (str.to_re "2") (str.to_re "6")))) (str.to_re "00"))))) (re.union (str.to_re " ") (str.to_re "\u{9}") (str.to_re "\u{a}") (str.to_re "\u{c}") (str.to_re "\u{d}")) (re.union (re.++ (re.union (re.++ (re.opt (str.to_re "0")) (re.range "1" "9")) (re.++ (str.to_re "1") (re.range "0" "2"))) (re.union (str.to_re ":") (str.to_re ".")) (re.range "0" "5") (re.range "0" "9") (re.opt (re.++ (re.union (str.to_re ":") (str.to_re ".")) (re.range "0" "5") (re.range "0" "9"))) (re.opt (str.to_re " ")) (re.union (str.to_re "AM") (str.to_re "am") (str.to_re "aM") (str.to_re "Am") (str.to_re "PM") (str.to_re "pm") (str.to_re "pM") (str.to_re "Pm"))) (re.++ (re.union (re.++ (re.opt (str.to_re "0")) (re.range "0" "9")) (re.++ (str.to_re "1") (re.range "0" "9")) (re.++ (str.to_re "2") (re.range "0" "3"))) (re.union (str.to_re ":") (str.to_re ".")) (re.range "0" "5") (re.range "0" "9") (re.opt (re.++ (re.union (str.to_re ":") (str.to_re ".")) (re.range "0" "5") (re.range "0" "9"))))) (str.to_re "\u{a}")) (re.comp (re.++ (re.union (re.++ (re.union (re.++ (re.union (re.++ (re.opt (str.to_re "0")) (re.range "1" "9")) (re.++ (str.to_re "1") (re.union (str.to_re "0") (str.to_re "1") (str.to_re "2")))) (str.to_re "/") (re.union (re.++ (re.opt (str.to_re "0")) (re.range "1" "9")) (re.++ (str.to_re "1") (re.range "0" "9")) (re.++ (str.to_re "2") (re.range "0" "8")))) (re.++ (re.union (re.++ (re.opt (str.to_re "0")) (re.union (str.to_re "1") (str.to_re "3") (str.to_re "4") (str.to_re "5") (str.to_re "6") (str.to_re "7") (str.to_re "8") (str.to_re "9"))) (re.++ (str.to_re "1") (re.union (str.to_re "0") (str.to_re "1") (str.to_re "2")))) (str.to_re "/") (re.union (str.to_re "29") (str.to_re "30"))) (re.++ (re.union (re.++ (re.opt (str.to_re "0")) (re.union (str.to_re "1") (str.to_re "3") (str.to_re "5") (str.to_re "6") (str.to_re "8"))) (re.++ (str.to_re "1") (re.union (str.to_re "0") (str.to_re "2")))) (str.to_re "/31"))) (str.to_re "/") (re.union (str.to_re "19") (re.++ (re.range "2" "9") (re.range "0" "9"))) ((_ re.loop 2 2) (re.range "0" "9"))) (re.++ (re.opt (str.to_re "0")) (str.to_re "2/29/") (re.union (re.++ (re.union (str.to_re "19") (re.++ (re.range "2" "9") (re.range "0" "9"))) (re.union (re.++ (str.to_re "0") (re.union (str.to_re "4") (str.to_re "8"))) (re.++ (re.union (str.to_re "2") (str.to_re "4") (str.to_re "6") (str.to_re "8")) (re.union (str.to_re "0") (str.to_re "4") (str.to_re "8"))) (re.++ (re.union (str.to_re "1") (str.to_re "3") (str.to_re "5") (str.to_re "7") (str.to_re "9")) (re.union (str.to_re "2") (str.to_re "6"))))) (re.++ (re.union (re.++ (re.union (str.to_re "2") (str.to_re "4") (str.to_re "6") (str.to_re "8")) (re.union (str.to_re "0") (str.to_re "4") (str.to_re "7"))) (re.++ (re.union (str.to_re "3") (str.to_re "5") (str.to_re "7") (str.to_re "9")) (re.union (str.to_re "2") (str.to_re "6")))) (str.to_re "00"))))) (re.union (str.to_re " ") (str.to_re "\u{9}") (str.to_re "\u{a}") (str.to_re "\u{c}") (str.to_re "\u{d}")) (re.union (re.++ (re.union (re.++ (re.opt (str.to_re "0")) (re.range "1" "9")) (re.++ (str.to_re "1") (re.range "0" "2"))) (re.union (str.to_re ":") (str.to_re ".")) (re.range "0" "5") (re.range "0" "9") (re.opt (re.++ (re.union (str.to_re ":") (str.to_re ".")) (re.range "0" "5") (re.range "0" "9"))) (re.opt (str.to_re " ")) (re.union (str.to_re "AM") (str.to_re "am") (str.to_re "aM") (str.to_re "Am") (str.to_re "PM") (str.to_re "pm") (str.to_re "pM") (str.to_re "Pm"))) (re.++ (re.union (re.++ (re.opt (str.to_re "0")) (re.range "0" "9")) (re.++ (str.to_re "1") (re.range "0" "9")) (re.++ (str.to_re "2") (re.range "0" "3"))) (re.union (str.to_re ":") (str.to_re ".")) (re.range "0" "5") (re.range "0" "9") (re.opt (re.++ (re.union (str.to_re ":") (str.to_re ".")) (re.range "0" "5") (re.range "0" "9"))))) (str.to_re "\u{a}")))) (re.inter (re.comp (re.++ (re.union (re.++ (re.union (re.++ (re.union (re.++ (re.opt (str.to_re "0")) (re.range "1" "9")) (re.++ (str.to_re "1") (re.union (str.to_re "0") (str.to_re "1") (str.to_re "2")))) (str.to_re "/") (re.union (re.++ (re.opt (str.to_re "0")) (re.range "1" "9")) (re.++ (str.to_re "1") (re.range "0" "9")) (re.++ (str.to_re "2") (re.range "0" "8")))) (re.++ (re.union (re.++ (re.opt (str.to_re "0")) (re.union (str.to_re "1") (str.to_re "3") (str.to_re "4") (str.to_re "5") (str.to_re "6") (str.to_re "7") (str.to_re "8") (str.to_re "9"))) (re.++ (str.to_re "1") (re.union (str.to_re "0") (str.to_re "1") (str.to_re "2")))) (str.to_re "/") (re.union (str.to_re "29") (str.to_re "30"))) (re.++ (re.union (re.++ (re.opt (str.to_re "0")) (re.union (str.to_re "1") (str.to_re "3") (str.to_re "5") (str.to_re "7") (str.to_re "8"))) (re.++ (str.to_re "1") (re.union (str.to_re "0") (str.to_re "2")))) (str.to_re "/31"))) (str.to_re "/") (re.union (str.to_re "19") (re.++ (re.range "2" "9") (re.range "0" "9"))) ((_ re.loop 2 2) (re.range "0" "9"))) (re.++ (re.opt (str.to_re "0")) (str.to_re "2/29/") (re.union (re.++ (re.union (str.to_re "19") (re.++ (re.range "2" "9") (re.range "0" "9"))) (re.union (re.++ (str.to_re "0") (re.union (str.to_re "4") (str.to_re "8"))) (re.++ (re.union (str.to_re "2") (str.to_re "4") (str.to_re "6") (str.to_re "8")) (re.union (str.to_re "0") (str.to_re "4") (str.to_re "8"))) (re.++ (re.union (str.to_re "1") (str.to_re "3") (str.to_re "5") (str.to_re "7") (str.to_re "9")) (re.union (str.to_re "2") (str.to_re "6"))))) (re.++ (re.union (re.++ (re.union (str.to_re "2") (str.to_re "4") (str.to_re "6") (str.to_re "8")) (re.union (str.to_re "0") (str.to_re "4") (str.to_re "8"))) (re.++ (re.union (str.to_re "3") (str.to_re "5") (str.to_re "7") (str.to_re "9")) (re.union (str.to_re "2") (str.to_re "6")))) (str.to_re "00"))))) (re.union (str.to_re " ") (str.to_re "\u{9}") (str.to_re "\u{a}") (str.to_re "\u{c}") (str.to_re "\u{d}")) (re.union (re.++ (re.union (re.++ (re.opt (str.to_re "0")) (re.range "1" "9")) (re.++ (str.to_re "1") (re.range "0" "2"))) (re.union (str.to_re ":") (str.to_re ".")) (re.range "0" "5") (re.range "0" "9") (re.opt (re.++ (re.union (str.to_re ":") (str.to_re ".")) (re.range "0" "5") (re.range "0" "9"))) (re.opt (str.to_re " ")) (re.union (str.to_re "AM") (str.to_re "am") (str.to_re "aM") (str.to_re "Am") (str.to_re "PM") (str.to_re "pm") (str.to_re "pM") (str.to_re "Pm"))) (re.++ (re.union (re.++ (re.opt (str.to_re "0")) (re.range "0" "9")) (re.++ (str.to_re "1") (re.range "0" "9")) (re.++ (str.to_re "2") (re.range "0" "3"))) (re.union (str.to_re ":") (str.to_re ".")) (re.range "0" "5") (re.range "0" "9") (re.opt (re.++ (re.union (str.to_re ":") (str.to_re ".")) (re.range "0" "5") (re.range "0" "9"))))) (str.to_re "\u{a}"))) (re.++ (re.union (re.++ (re.union (re.++ (re.union (re.++ (re.opt (str.to_re "0")) (re.range "1" "9")) (re.++ (str.to_re "1") (re.union (str.to_re "0") (str.to_re "1") (str.to_re "2")))) (str.to_re "/") (re.union (re.++ (re.opt (str.to_re "0")) (re.range "1" "9")) (re.++ (str.to_re "1") (re.range "0" "9")) (re.++ (str.to_re "2") (re.range "0" "8")))) (re.++ (re.union (re.++ (re.opt (str.to_re "0")) (re.union (str.to_re "1") (str.to_re "3") (str.to_re "4") (str.to_re "5") (str.to_re "6") (str.to_re "7") (str.to_re "8") (str.to_re "9"))) (re.++ (str.to_re "1") (re.union (str.to_re "0") (str.to_re "1") (str.to_re "2")))) (str.to_re "/") (re.union (str.to_re "29") (str.to_re "30"))) (re.++ (re.union (re.++ (re.opt (str.to_re "0")) (re.union (str.to_re "1") (str.to_re "3") (str.to_re "5") (str.to_re "6") (str.to_re "8"))) (re.++ (str.to_re "1") (re.union (str.to_re "0") (str.to_re "2")))) (str.to_re "/31"))) (str.to_re "/") (re.union (str.to_re "19") (re.++ (re.range "2" "9") (re.range "0" "9"))) ((_ re.loop 2 2) (re.range "0" "9"))) (re.++ (re.opt (str.to_re "0")) (str.to_re "2/29/") (re.union (re.++ (re.union (str.to_re "19") (re.++ (re.range "2" "9") (re.range "0" "9"))) (re.union (re.++ (str.to_re "0") (re.union (str.to_re "4") (str.to_re "8"))) (re.++ (re.union (str.to_re "2") (str.to_re "4") (str.to_re "6") (str.to_re "8")) (re.union (str.to_re "0") (str.to_re "4") (str.to_re "8"))) (re.++ (re.union (str.to_re "1") (str.to_re "3") (str.to_re "5") (str.to_re "7") (str.to_re "9")) (re.union (str.to_re "2") (str.to_re "6"))))) (re.++ (re.union (re.++ (re.union (str.to_re "2") (str.to_re "4") (str.to_re "6") (str.to_re "8")) (re.union (str.to_re "0") (str.to_re "4") (str.to_re "7"))) (re.++ (re.union (str.to_re "3") (str.to_re "5") (str.to_re "7") (str.to_re "9")) (re.union (str.to_re "2") (str.to_re "6")))) (str.to_re "00"))))) (re.union (str.to_re " ") (str.to_re "\u{9}") (str.to_re "\u{a}") (str.to_re "\u{c}") (str.to_re "\u{d}")) (re.union (re.++ (re.union (re.++ (re.opt (str.to_re "0")) (re.range "1" "9")) (re.++ (str.to_re "1") (re.range "0" "2"))) (re.union (str.to_re ":") (str.to_re ".")) (re.range "0" "5") (re.range "0" "9") (re.opt (re.++ (re.union (str.to_re ":") (str.to_re ".")) (re.range "0" "5") (re.range "0" "9"))) (re.opt (str.to_re " ")) (re.union (str.to_re "AM") (str.to_re "am") (str.to_re "aM") (str.to_re "Am") (str.to_re "PM") (str.to_re "pm") (str.to_re "pM") (str.to_re "Pm"))) (re.++ (re.union (re.++ (re.opt (str.to_re "0")) (re.range "0" "9")) (re.++ (str.to_re "1") (re.range "0" "9")) (re.++ (str.to_re "2") (re.range "0" "3"))) (re.union (str.to_re ":") (str.to_re ".")) (re.range "0" "5") (re.range "0" "9") (re.opt (re.++ (re.union (str.to_re ":") (str.to_re ".")) (re.range "0" "5") (re.range "0" "9"))))) (str.to_re "\u{a}"))))))

(check-sat)
(exit)
